c This Formular is generated by mcnf
c
c    horn? no 
c    forced? no 
c    mixed sat? no 
c    clause length = 3 
c
p cnf 20  91 
 -15 -13 7 0
13 -15 1 0
16 -14 18 0
-19 -20 -7 0
-5 4 16 0
5 14 -19 0
-3 2 -17 0
10 1 -15 0
-2 10 -13 0
-1 8 -13 0
-16 1 -14 0
7 11 -16 0
15 -16 19 0
-2 -19 -11 0
11 16 2 0
-3 -2 -11 0
11 3 -10 0
5 20 12 0
-5 11 8 0
-10 -15 18 0
-2 -1 6 0
%
0

56 7 56 8 67 42 12 1 72 78 16 41 41 51 90 70 92 49 51 87
